p cnf 78 1101
1 7 13 19 25 31 37 43 49 55 61 67 73 0
2 8 14 20 26 32 38 44 50 56 62 68 74 0
3 9 15 21 27 33 39 45 51 57 63 69 75 0
4 10 16 22 28 34 40 46 52 58 64 70 76 0
5 11 17 23 29 35 41 47 53 59 65 71 77 0
6 12 18 24 30 36 42 48 54 60 66 72 78 0
-1 -2 0
-1 -3 0
-1 -4 0
-1 -5 0
-1 -6 0
-2 -3 0
-2 -4 0
-2 -5 0
-2 -6 0
-3 -4 0
-3 -5 0
-3 -6 0
-4 -5 0
-4 -6 0
-5 -6 0
-7 -8 0
-7 -9 0
-7 -10 0
-7 -11 0
-7 -12 0
-8 -9 0
-8 -10 0
-8 -11 0
-8 -12 0
-9 -10 0
-9 -11 0
-9 -12 0
-10 -11 0
-10 -12 0
-11 -12 0
-13 -14 0
-13 -15 0
-13 -16 0
-13 -17 0
-13 -18 0
-14 -15 0
-14 -16 0
-14 -17 0
-14 -18 0
-15 -16 0
-15 -17 0
-15 -18 0
-16 -17 0
-16 -18 0
-17 -18 0
-19 -20 0
-19 -21 0
-19 -22 0
-19 -23 0
-19 -24 0
-20 -21 0
-20 -22 0
-20 -23 0
-20 -24 0
-21 -22 0
-21 -23 0
-21 -24 0
-22 -23 0
-22 -24 0
-23 -24 0
-25 -26 0
-25 -27 0
-25 -28 0
-25 -29 0
-25 -30 0
-26 -27 0
-26 -28 0
-26 -29 0
-26 -30 0
-27 -28 0
-27 -29 0
-27 -30 0
-28 -29 0
-28 -30 0
-29 -30 0
-31 -32 0
-31 -33 0
-31 -34 0
-31 -35 0
-31 -36 0
-32 -33 0
-32 -34 0
-32 -35 0
-32 -36 0
-33 -34 0
-33 -35 0
-33 -36 0
-34 -35 0
-34 -36 0
-35 -36 0
-37 -38 0
-37 -39 0
-37 -40 0
-37 -41 0
-37 -42 0
-38 -39 0
-38 -40 0
-38 -41 0
-38 -42 0
-39 -40 0
-39 -41 0
-39 -42 0
-40 -41 0
-40 -42 0
-41 -42 0
-43 -44 0
-43 -45 0
-43 -46 0
-43 -47 0
-43 -48 0
-44 -45 0
-44 -46 0
-44 -47 0
-44 -48 0
-45 -46 0
-45 -47 0
-45 -48 0
-46 -47 0
-46 -48 0
-47 -48 0
-49 -50 0
-49 -51 0
-49 -52 0
-49 -53 0
-49 -54 0
-50 -51 0
-50 -52 0
-50 -53 0
-50 -54 0
-51 -52 0
-51 -53 0
-51 -54 0
-52 -53 0
-52 -54 0
-53 -54 0
-55 -56 0
-55 -57 0
-55 -58 0
-55 -59 0
-55 -60 0
-56 -57 0
-56 -58 0
-56 -59 0
-56 -60 0
-57 -58 0
-57 -59 0
-57 -60 0
-58 -59 0
-58 -60 0
-59 -60 0
-61 -62 0
-61 -63 0
-61 -64 0
-61 -65 0
-61 -66 0
-62 -63 0
-62 -64 0
-62 -65 0
-62 -66 0
-63 -64 0
-63 -65 0
-63 -66 0
-64 -65 0
-64 -66 0
-65 -66 0
-67 -68 0
-67 -69 0
-67 -70 0
-67 -71 0
-67 -72 0
-68 -69 0
-68 -70 0
-68 -71 0
-68 -72 0
-69 -70 0
-69 -71 0
-69 -72 0
-70 -71 0
-70 -72 0
-71 -72 0
-73 -74 0
-73 -75 0
-73 -76 0
-73 -77 0
-73 -78 0
-74 -75 0
-74 -76 0
-74 -77 0
-74 -78 0
-75 -76 0
-75 -77 0
-75 -78 0
-76 -77 0
-76 -78 0
-77 -78 0
-1 -14 0
-1 -15 0
-1 -16 0
-1 -17 0
-1 -18 0
-2 -13 0
-2 -15 0
-2 -16 0
-2 -17 0
-2 -18 0
-3 -13 0
-3 -14 0
-3 -16 0
-3 -17 0
-3 -18 0
-4 -13 0
-4 -14 0
-4 -15 0
-4 -17 0
-4 -18 0
-5 -13 0
-5 -14 0
-5 -15 0
-5 -16 0
-5 -18 0
-6 -13 0
-6 -14 0
-6 -15 0
-6 -16 0
-6 -17 0
-1 -32 0
-1 -33 0
-1 -34 0
-1 -35 0
-1 -36 0
-2 -31 0
-2 -33 0
-2 -34 0
-2 -35 0
-2 -36 0
-3 -31 0
-3 -32 0
-3 -34 0
-3 -35 0
-3 -36 0
-4 -31 0
-4 -32 0
-4 -33 0
-4 -35 0
-4 -36 0
-5 -31 0
-5 -32 0
-5 -33 0
-5 -34 0
-5 -36 0
-6 -31 0
-6 -32 0
-6 -33 0
-6 -34 0
-6 -35 0
-1 -50 0
-1 -51 0
-1 -52 0
-1 -53 0
-1 -54 0
-2 -49 0
-2 -51 0
-2 -52 0
-2 -53 0
-2 -54 0
-3 -49 0
-3 -50 0
-3 -52 0
-3 -53 0
-3 -54 0
-4 -49 0
-4 -50 0
-4 -51 0
-4 -53 0
-4 -54 0
-5 -49 0
-5 -50 0
-5 -51 0
-5 -52 0
-5 -54 0
-6 -49 0
-6 -50 0
-6 -51 0
-6 -52 0
-6 -53 0
-7 -26 0
-7 -27 0
-7 -28 0
-7 -29 0
-7 -30 0
-8 -25 0
-8 -27 0
-8 -28 0
-8 -29 0
-8 -30 0
-9 -25 0
-9 -26 0
-9 -28 0
-9 -29 0
-9 -30 0
-10 -25 0
-10 -26 0
-10 -27 0
-10 -29 0
-10 -30 0
-11 -25 0
-11 -26 0
-11 -27 0
-11 -28 0
-11 -30 0
-12 -25 0
-12 -26 0
-12 -27 0
-12 -28 0
-12 -29 0
-7 -38 0
-7 -39 0
-7 -40 0
-7 -41 0
-7 -42 0
-8 -37 0
-8 -39 0
-8 -40 0
-8 -41 0
-8 -42 0
-9 -37 0
-9 -38 0
-9 -40 0
-9 -41 0
-9 -42 0
-10 -37 0
-10 -38 0
-10 -39 0
-10 -41 0
-10 -42 0
-11 -37 0
-11 -38 0
-11 -39 0
-11 -40 0
-11 -42 0
-12 -37 0
-12 -38 0
-12 -39 0
-12 -40 0
-12 -41 0
-7 -56 0
-7 -57 0
-7 -58 0
-7 -59 0
-7 -60 0
-8 -55 0
-8 -57 0
-8 -58 0
-8 -59 0
-8 -60 0
-9 -55 0
-9 -56 0
-9 -58 0
-9 -59 0
-9 -60 0
-10 -55 0
-10 -56 0
-10 -57 0
-10 -59 0
-10 -60 0
-11 -55 0
-11 -56 0
-11 -57 0
-11 -58 0
-11 -60 0
-12 -55 0
-12 -56 0
-12 -57 0
-12 -58 0
-12 -59 0
-13 -20 0
-13 -21 0
-13 -22 0
-13 -23 0
-13 -24 0
-14 -19 0
-14 -21 0
-14 -22 0
-14 -23 0
-14 -24 0
-15 -19 0
-15 -20 0
-15 -22 0
-15 -23 0
-15 -24 0
-16 -19 0
-16 -20 0
-16 -21 0
-16 -23 0
-16 -24 0
-17 -19 0
-17 -20 0
-17 -21 0
-17 -22 0
-17 -24 0
-18 -19 0
-18 -20 0
-18 -21 0
-18 -22 0
-18 -23 0
-13 -26 0
-13 -27 0
-13 -28 0
-13 -29 0
-13 -30 0
-14 -25 0
-14 -27 0
-14 -28 0
-14 -29 0
-14 -30 0
-15 -25 0
-15 -26 0
-15 -28 0
-15 -29 0
-15 -30 0
-16 -25 0
-16 -26 0
-16 -27 0
-16 -29 0
-16 -30 0
-17 -25 0
-17 -26 0
-17 -27 0
-17 -28 0
-17 -30 0
-18 -25 0
-18 -26 0
-18 -27 0
-18 -28 0
-18 -29 0
-13 -44 0
-13 -45 0
-13 -46 0
-13 -47 0
-13 -48 0
-14 -43 0
-14 -45 0
-14 -46 0
-14 -47 0
-14 -48 0
-15 -43 0
-15 -44 0
-15 -46 0
-15 -47 0
-15 -48 0
-16 -43 0
-16 -44 0
-16 -45 0
-16 -47 0
-16 -48 0
-17 -43 0
-17 -44 0
-17 -45 0
-17 -46 0
-17 -48 0
-18 -43 0
-18 -44 0
-18 -45 0
-18 -46 0
-18 -47 0
-13 -68 0
-13 -69 0
-13 -70 0
-13 -71 0
-13 -72 0
-14 -67 0
-14 -69 0
-14 -70 0
-14 -71 0
-14 -72 0
-15 -67 0
-15 -68 0
-15 -70 0
-15 -71 0
-15 -72 0
-16 -67 0
-16 -68 0
-16 -69 0
-16 -71 0
-16 -72 0
-17 -67 0
-17 -68 0
-17 -69 0
-17 -70 0
-17 -72 0
-18 -67 0
-18 -68 0
-18 -69 0
-18 -70 0
-18 -71 0
-19 -32 0
-19 -33 0
-19 -34 0
-19 -35 0
-19 -36 0
-20 -31 0
-20 -33 0
-20 -34 0
-20 -35 0
-20 -36 0
-21 -31 0
-21 -32 0
-21 -34 0
-21 -35 0
-21 -36 0
-22 -31 0
-22 -32 0
-22 -33 0
-22 -35 0
-22 -36 0
-23 -31 0
-23 -32 0
-23 -33 0
-23 -34 0
-23 -36 0
-24 -31 0
-24 -32 0
-24 -33 0
-24 -34 0
-24 -35 0
-19 -62 0
-19 -63 0
-19 -64 0
-19 -65 0
-19 -66 0
-20 -61 0
-20 -63 0
-20 -64 0
-20 -65 0
-20 -66 0
-21 -61 0
-21 -62 0
-21 -64 0
-21 -65 0
-21 -66 0
-22 -61 0
-22 -62 0
-22 -63 0
-22 -65 0
-22 -66 0
-23 -61 0
-23 -62 0
-23 -63 0
-23 -64 0
-23 -66 0
-24 -61 0
-24 -62 0
-24 -63 0
-24 -64 0
-24 -65 0
-19 -74 0
-19 -75 0
-19 -76 0
-19 -77 0
-19 -78 0
-20 -73 0
-20 -75 0
-20 -76 0
-20 -77 0
-20 -78 0
-21 -73 0
-21 -74 0
-21 -76 0
-21 -77 0
-21 -78 0
-22 -73 0
-22 -74 0
-22 -75 0
-22 -77 0
-22 -78 0
-23 -73 0
-23 -74 0
-23 -75 0
-23 -76 0
-23 -78 0
-24 -73 0
-24 -74 0
-24 -75 0
-24 -76 0
-24 -77 0
-25 -32 0
-25 -33 0
-25 -34 0
-25 -35 0
-25 -36 0
-26 -31 0
-26 -33 0
-26 -34 0
-26 -35 0
-26 -36 0
-27 -31 0
-27 -32 0
-27 -34 0
-27 -35 0
-27 -36 0
-28 -31 0
-28 -32 0
-28 -33 0
-28 -35 0
-28 -36 0
-29 -31 0
-29 -32 0
-29 -33 0
-29 -34 0
-29 -36 0
-30 -31 0
-30 -32 0
-30 -33 0
-30 -34 0
-30 -35 0
-25 -44 0
-25 -45 0
-25 -46 0
-25 -47 0
-25 -48 0
-26 -43 0
-26 -45 0
-26 -46 0
-26 -47 0
-26 -48 0
-27 -43 0
-27 -44 0
-27 -46 0
-27 -47 0
-27 -48 0
-28 -43 0
-28 -44 0
-28 -45 0
-28 -47 0
-28 -48 0
-29 -43 0
-29 -44 0
-29 -45 0
-29 -46 0
-29 -48 0
-30 -43 0
-30 -44 0
-30 -45 0
-30 -46 0
-30 -47 0
-25 -62 0
-25 -63 0
-25 -64 0
-25 -65 0
-25 -66 0
-26 -61 0
-26 -63 0
-26 -64 0
-26 -65 0
-26 -66 0
-27 -61 0
-27 -62 0
-27 -64 0
-27 -65 0
-27 -66 0
-28 -61 0
-28 -62 0
-28 -63 0
-28 -65 0
-28 -66 0
-29 -61 0
-29 -62 0
-29 -63 0
-29 -64 0
-29 -66 0
-30 -61 0
-30 -62 0
-30 -63 0
-30 -64 0
-30 -65 0
-31 -38 0
-31 -39 0
-31 -40 0
-31 -41 0
-31 -42 0
-32 -37 0
-32 -39 0
-32 -40 0
-32 -41 0
-32 -42 0
-33 -37 0
-33 -38 0
-33 -40 0
-33 -41 0
-33 -42 0
-34 -37 0
-34 -38 0
-34 -39 0
-34 -41 0
-34 -42 0
-35 -37 0
-35 -38 0
-35 -39 0
-35 -40 0
-35 -42 0
-36 -37 0
-36 -38 0
-36 -39 0
-36 -40 0
-36 -41 0
-31 -44 0
-31 -45 0
-31 -46 0
-31 -47 0
-31 -48 0
-32 -43 0
-32 -45 0
-32 -46 0
-32 -47 0
-32 -48 0
-33 -43 0
-33 -44 0
-33 -46 0
-33 -47 0
-33 -48 0
-34 -43 0
-34 -44 0
-34 -45 0
-34 -47 0
-34 -48 0
-35 -43 0
-35 -44 0
-35 -45 0
-35 -46 0
-35 -48 0
-36 -43 0
-36 -44 0
-36 -45 0
-36 -46 0
-36 -47 0
-31 -56 0
-31 -57 0
-31 -58 0
-31 -59 0
-31 -60 0
-32 -55 0
-32 -57 0
-32 -58 0
-32 -59 0
-32 -60 0
-33 -55 0
-33 -56 0
-33 -58 0
-33 -59 0
-33 -60 0
-34 -55 0
-34 -56 0
-34 -57 0
-34 -59 0
-34 -60 0
-35 -55 0
-35 -56 0
-35 -57 0
-35 -58 0
-35 -60 0
-36 -55 0
-36 -56 0
-36 -57 0
-36 -58 0
-36 -59 0
-31 -68 0
-31 -69 0
-31 -70 0
-31 -71 0
-31 -72 0
-32 -67 0
-32 -69 0
-32 -70 0
-32 -71 0
-32 -72 0
-33 -67 0
-33 -68 0
-33 -70 0
-33 -71 0
-33 -72 0
-34 -67 0
-34 -68 0
-34 -69 0
-34 -71 0
-34 -72 0
-35 -67 0
-35 -68 0
-35 -69 0
-35 -70 0
-35 -72 0
-36 -67 0
-36 -68 0
-36 -69 0
-36 -70 0
-36 -71 0
-37 -44 0
-37 -45 0
-37 -46 0
-37 -47 0
-37 -48 0
-38 -43 0
-38 -45 0
-38 -46 0
-38 -47 0
-38 -48 0
-39 -43 0
-39 -44 0
-39 -46 0
-39 -47 0
-39 -48 0
-40 -43 0
-40 -44 0
-40 -45 0
-40 -47 0
-40 -48 0
-41 -43 0
-41 -44 0
-41 -45 0
-41 -46 0
-41 -48 0
-42 -43 0
-42 -44 0
-42 -45 0
-42 -46 0
-42 -47 0
-37 -56 0
-37 -57 0
-37 -58 0
-37 -59 0
-37 -60 0
-38 -55 0
-38 -57 0
-38 -58 0
-38 -59 0
-38 -60 0
-39 -55 0
-39 -56 0
-39 -58 0
-39 -59 0
-39 -60 0
-40 -55 0
-40 -56 0
-40 -57 0
-40 -59 0
-40 -60 0
-41 -55 0
-41 -56 0
-41 -57 0
-41 -58 0
-41 -60 0
-42 -55 0
-42 -56 0
-42 -57 0
-42 -58 0
-42 -59 0
-37 -62 0
-37 -63 0
-37 -64 0
-37 -65 0
-37 -66 0
-38 -61 0
-38 -63 0
-38 -64 0
-38 -65 0
-38 -66 0
-39 -61 0
-39 -62 0
-39 -64 0
-39 -65 0
-39 -66 0
-40 -61 0
-40 -62 0
-40 -63 0
-40 -65 0
-40 -66 0
-41 -61 0
-41 -62 0
-41 -63 0
-41 -64 0
-41 -66 0
-42 -61 0
-42 -62 0
-42 -63 0
-42 -64 0
-42 -65 0
-37 -68 0
-37 -69 0
-37 -70 0
-37 -71 0
-37 -72 0
-38 -67 0
-38 -69 0
-38 -70 0
-38 -71 0
-38 -72 0
-39 -67 0
-39 -68 0
-39 -70 0
-39 -71 0
-39 -72 0
-40 -67 0
-40 -68 0
-40 -69 0
-40 -71 0
-40 -72 0
-41 -67 0
-41 -68 0
-41 -69 0
-41 -70 0
-41 -72 0
-42 -67 0
-42 -68 0
-42 -69 0
-42 -70 0
-42 -71 0
-43 -50 0
-43 -51 0
-43 -52 0
-43 -53 0
-43 -54 0
-44 -49 0
-44 -51 0
-44 -52 0
-44 -53 0
-44 -54 0
-45 -49 0
-45 -50 0
-45 -52 0
-45 -53 0
-45 -54 0
-46 -49 0
-46 -50 0
-46 -51 0
-46 -53 0
-46 -54 0
-47 -49 0
-47 -50 0
-47 -51 0
-47 -52 0
-47 -54 0
-48 -49 0
-48 -50 0
-48 -51 0
-48 -52 0
-48 -53 0
-43 -62 0
-43 -63 0
-43 -64 0
-43 -65 0
-43 -66 0
-44 -61 0
-44 -63 0
-44 -64 0
-44 -65 0
-44 -66 0
-45 -61 0
-45 -62 0
-45 -64 0
-45 -65 0
-45 -66 0
-46 -61 0
-46 -62 0
-46 -63 0
-46 -65 0
-46 -66 0
-47 -61 0
-47 -62 0
-47 -63 0
-47 -64 0
-47 -66 0
-48 -61 0
-48 -62 0
-48 -63 0
-48 -64 0
-48 -65 0
-49 -56 0
-49 -57 0
-49 -58 0
-49 -59 0
-49 -60 0
-50 -55 0
-50 -57 0
-50 -58 0
-50 -59 0
-50 -60 0
-51 -55 0
-51 -56 0
-51 -58 0
-51 -59 0
-51 -60 0
-52 -55 0
-52 -56 0
-52 -57 0
-52 -59 0
-52 -60 0
-53 -55 0
-53 -56 0
-53 -57 0
-53 -58 0
-53 -60 0
-54 -55 0
-54 -56 0
-54 -57 0
-54 -58 0
-54 -59 0
-55 -74 0
-55 -75 0
-55 -76 0
-55 -77 0
-55 -78 0
-56 -73 0
-56 -75 0
-56 -76 0
-56 -77 0
-56 -78 0
-57 -73 0
-57 -74 0
-57 -76 0
-57 -77 0
-57 -78 0
-58 -73 0
-58 -74 0
-58 -75 0
-58 -77 0
-58 -78 0
-59 -73 0
-59 -74 0
-59 -75 0
-59 -76 0
-59 -78 0
-60 -73 0
-60 -74 0
-60 -75 0
-60 -76 0
-60 -77 0
-61 -74 0
-61 -75 0
-61 -76 0
-61 -77 0
-61 -78 0
-62 -73 0
-62 -75 0
-62 -76 0
-62 -77 0
-62 -78 0
-63 -73 0
-63 -74 0
-63 -76 0
-63 -77 0
-63 -78 0
-64 -73 0
-64 -74 0
-64 -75 0
-64 -77 0
-64 -78 0
-65 -73 0
-65 -74 0
-65 -75 0
-65 -76 0
-65 -78 0
-66 -73 0
-66 -74 0
-66 -75 0
-66 -76 0
-66 -77 0
-67 -74 0
-67 -75 0
-67 -76 0
-67 -77 0
-67 -78 0
-68 -73 0
-68 -75 0
-68 -76 0
-68 -77 0
-68 -78 0
-69 -73 0
-69 -74 0
-69 -76 0
-69 -77 0
-69 -78 0
-70 -73 0
-70 -74 0
-70 -75 0
-70 -77 0
-70 -78 0
-71 -73 0
-71 -74 0
-71 -75 0
-71 -76 0
-71 -78 0
-72 -73 0
-72 -74 0
-72 -75 0
-72 -76 0
-72 -77 0
